; benchmark generated from python API
(set-info :status unknown)
(declare-fun DISJ_W_S2_R_S1 () Bool)
(declare-fun W_S2_V5 () Bool)
(declare-fun W_S1_V4 () Bool)
(declare-fun R_S2_V3 () Bool)
(declare-fun DISJ_W_S1_R_S2 () Bool)
(declare-fun DISJ_W_S2_R_S2 () Bool)
(declare-fun W_S2_V2 () Bool)
(declare-fun R_E1_V4 () Bool)
(declare-fun R_E1_V5 () Bool)
(declare-fun W_S1_V5 () Bool)
(declare-fun W_S2_V3 () Bool)
(declare-fun W_S2_V1 () Bool)
(declare-fun R_S2_V4 () Bool)
(declare-fun R_S2_V5 () Bool)
(declare-fun R_S2_V2 () Bool)
(declare-fun R_S2_V1 () Bool)
(declare-fun R_S1_V4 () Bool)
(declare-fun R_S1_V5 () Bool)
(declare-fun R_S1_V2 () Bool)
(declare-fun R_S1_V3 () Bool)
(declare-fun R_S1_V1 () Bool)
(declare-fun R_E1_V2 () Bool)
(declare-fun DISJ_W_S2_R_E1 () Bool)
(declare-fun DISJ_W_S1_W_S2 () Bool)
(declare-fun R_E1_V3 () Bool)
(declare-fun DISJ_W_S1_R_S1 () Bool)
(declare-fun W_S2_V4 () Bool)
(declare-fun W_S1_V3 () Bool)
(declare-fun W_S1_V2 () Bool)
(declare-fun W_S1_V1 () Bool)
(declare-fun R_E1_V1 () Bool)
(declare-fun DISJ_W_S1_R_E1 () Bool)
(assert
 (let (($x2711 (not (and (not R_S2_V3) (not W_S1_V4) (not W_S2_V5) DISJ_W_S2_R_S1))))
 (let (($x2800 (not (and DISJ_W_S1_R_S2 DISJ_W_S2_R_S1))))
 (let (($x1832 (not (and (not W_S2_V2) DISJ_W_S2_R_S2))))
 (let (($x5108 (not (and DISJ_W_S2_R_S1 DISJ_W_S2_R_S2))))
 (let (($x2265 (not (and W_S1_V4 R_E1_V4))))
 (let (($x2903 (not (and W_S1_V5 R_E1_V5))))
 (let (($x1951 (forall ((V3_0 Int) )(forall ((V2_0 Int) )(forall ((V5_0 Int) )(forall ((V4_0 Int) )(forall ((MW_S1_V1 Bool) )(forall ((MW_S1_V3 Bool) )(forall ((MW_S1_V2 Bool) )(forall ((MW_S1_V5 Bool) )(forall ((MW_S1_V4 Bool) )(forall ((MW_S2_V1 Bool) )(forall ((MW_S2_V3 Bool) )(forall ((MW_S2_V2 Bool) )(forall ((MW_S2_V5 Bool) )(forall ((MW_S2_V4 Bool) )(forall ((S1_V1_!2447 Int) )(forall ((S1_V1_!2464 Int) )(forall ((S1_V1_!2474 Int) )(forall ((S2_V5_!2456 Int) )(forall ((S2_V5_!2461 Int) )(forall ((S2_V5_!2472 Int) )(forall ((S2_V5_!2482 Int) )(forall ((S1_V3_!2448 Int) )(forall ((S1_V3_!2465 Int) )(forall ((S1_V3_!2475 Int) )(forall ((S1_V2_!2449 Int) )(forall ((S1_V2_!2466 Int) )(forall ((S1_V2_!2476 Int) )(forall ((E1_!2446 Int) )(forall ((E1_!2452 Int) )(forall ((E1_!2463 Int) )(forall ((S2_V4_!2457 Int) )(forall ((S2_V4_!2462 Int) )(forall ((S2_V4_!2473 Int) )(forall ((S2_V4_!2483 Int) )(forall ((S1_V5_!2450 Int) )(forall ((S1_V5_!2467 Int) )(forall ((S1_V5_!2477 Int) )(forall ((S2_V1_!2453 Int) )(forall ((S2_V1_!2458 Int) )(forall ((S2_V1_!2469 Int) )(forall ((S2_V1_!2479 Int) )(forall ((S1_V4_!2451 Int) )(forall ((S1_V4_!2468 Int) )(forall ((S1_V4_!2478 Int) )(forall ((S2_V2_!2455 Int) )(forall ((S2_V2_!2460 Int) )(forall ((S2_V2_!2471 Int) )(forall ((S2_V2_!2481 Int) )(forall ((S2_V3_!2454 Int) )(forall ((S2_V3_!2459 Int) )(forall ((S2_V3_!2470 Int) )(forall ((S2_V3_!2480 Int) )(let (($x1060 (= (ite MW_S2_V4 S2_V4_!2462 (ite MW_S1_V4 S1_V4_!2451 V4_0)) (ite MW_S2_V4 S2_V4_!2483 (ite MW_S1_V4 S1_V4_!2478 (ite MW_S2_V4 S2_V4_!2473 (ite MW_S1_V4 S1_V4_!2468 V4_0)))))))
 (let (($x140 (= (ite MW_S2_V5 S2_V5_!2461 (ite MW_S1_V5 S1_V5_!2450 V5_0)) (ite MW_S2_V5 S2_V5_!2482 (ite MW_S1_V5 S1_V5_!2477 (ite MW_S2_V5 S2_V5_!2472 (ite MW_S1_V5 S1_V5_!2467 V5_0)))))))
 (let ((?x5285 (ite MW_S1_V2 S1_V2_!2466 V2_0)))
 (let ((?x1479 (ite MW_S2_V2 S2_V2_!2471 ?x5285)))
 (let ((?x4865 (ite MW_S1_V2 S1_V2_!2476 ?x1479)))
 (let ((?x855 (ite MW_S2_V2 S2_V2_!2481 ?x4865)))
 (let ((?x2246 (ite MW_S1_V2 S1_V2_!2449 V2_0)))
 (let ((?x2017 (ite MW_S2_V2 S2_V2_!2460 ?x2246)))
 (let (($x2027 (= (ite MW_S2_V3 S2_V3_!2459 (ite MW_S1_V3 S1_V3_!2448 V3_0)) (ite MW_S2_V3 S2_V3_!2480 (ite MW_S1_V3 S1_V3_!2475 (ite MW_S2_V3 S2_V3_!2470 (ite MW_S1_V3 S1_V3_!2465 V3_0)))))))
 (let ((?x6016 (ite MW_S1_V1 S1_V1_!2464 E1_!2463)))
 (let ((?x5089 (ite MW_S2_V1 S2_V1_!2469 ?x6016)))
 (let ((?x2835 (+ 1 ?x5089)))
 (let ((?x4809 (ite MW_S1_V1 S1_V1_!2474 ?x2835)))
 (let ((?x2594 (ite MW_S2_V1 S2_V1_!2479 ?x4809)))
 (let ((?x1039 (ite MW_S2_V1 S2_V1_!2453 E1_!2452)))
 (let ((?x3792 (+ 1 ?x1039)))
 (let ((?x96 (ite MW_S2_V1 S2_V1_!2458 ?x3792)))
 (let (($x3292 (and (not (<= V2_0 E1_!2446)) (>= (ite MW_S1_V1 S1_V1_!2447 E1_!2446) (+ (- 1) ?x2246)) (not (<= ?x2246 E1_!2452)) (not (<= (ite MW_S2_V2 S2_V2_!2455 ?x2246) ?x3792)) (>= ?x96 (+ (- 1) ?x2017)) (not (<= V2_0 E1_!2463)) (not (<= ?x1479 ?x2835)) (>= ?x2594 (+ (- 1) ?x855)))))
 (let (($x5744 (= S2_V3_!2480 S2_V3_!2470)))
 (let ((?x3616 (ite MW_S1_V4 S1_V4_!2468 V4_0)))
 (let ((?x3990 (ite MW_S2_V4 S2_V4_!2473 ?x3616)))
 (let ((?x2241 (ite MW_S1_V4 S1_V4_!2478 ?x3990)))
 (let (($x5480 (not R_S2_V4)))
 (let ((?x1901 (ite MW_S1_V5 S1_V5_!2467 V5_0)))
 (let ((?x194 (ite MW_S2_V5 S2_V5_!2472 ?x1901)))
 (let ((?x1808 (ite MW_S1_V5 S1_V5_!2477 ?x194)))
 (let (($x150 (not R_S2_V5)))
 (let ((?x1873 (ite MW_S1_V3 S1_V3_!2465 V3_0)))
 (let ((?x3891 (ite MW_S2_V3 S2_V3_!2470 ?x1873)))
 (let ((?x305 (ite MW_S1_V3 S1_V3_!2475 ?x3891)))
 (let (($x2162 (not R_S2_V3)))
 (let (($x1856 (and (or (not R_S2_V1) (= ?x4809 ?x6016)) (or $x2162 (= ?x305 ?x1873)) (or (not R_S2_V2) (= ?x4865 ?x5285)) (or $x150 (= ?x1808 ?x1901)) (or $x5480 (= ?x2241 ?x3616)))))
 (let (($x5208 (not $x1856)))
 (let (($x1973 (= S2_V3_!2480 S2_V3_!2459)))
 (let (($x3503 (and (or (not R_S2_V1) (= ?x4809 ?x3792)) (or $x2162 (= ?x305 (ite MW_S2_V3 S2_V3_!2454 (ite MW_S1_V3 S1_V3_!2448 V3_0)))) (or (not R_S2_V2) (= ?x4865 (ite MW_S2_V2 S2_V2_!2455 ?x2246))) (or $x150 (= ?x1808 (ite MW_S2_V5 S2_V5_!2456 (ite MW_S1_V5 S1_V5_!2450 V5_0)))) (or $x5480 (= ?x2241 (ite MW_S2_V4 S2_V4_!2457 (ite MW_S1_V4 S1_V4_!2451 V4_0)))))))
 (let (($x1679 (not $x3503)))
 (let (($x5839 (= S2_V3_!2470 S2_V3_!2459)))
 (let (($x2132 (and (or (not R_S2_V1) (= ?x6016 ?x3792)) (or $x2162 (= ?x1873 (ite MW_S2_V3 S2_V3_!2454 (ite MW_S1_V3 S1_V3_!2448 V3_0)))) (or (not R_S2_V2) (= ?x5285 (ite MW_S2_V2 S2_V2_!2455 ?x2246))) (or $x150 (= ?x1901 (ite MW_S2_V5 S2_V5_!2456 (ite MW_S1_V5 S1_V5_!2450 V5_0)))) (or $x5480 (= ?x3616 (ite MW_S2_V4 S2_V4_!2457 (ite MW_S1_V4 S1_V4_!2451 V4_0)))))))
 (let (($x746 (not $x2132)))
 (let (($x963 (= S2_V3_!2454 S2_V3_!2480)))
 (let (($x621 (and (or (not R_S2_V1) (= E1_!2452 ?x4809)) (or $x2162 (= (ite MW_S1_V3 S1_V3_!2448 V3_0) ?x305)) (or (not R_S2_V2) (= ?x2246 ?x4865)) (or $x150 (= (ite MW_S1_V5 S1_V5_!2450 V5_0) ?x1808)) (or $x5480 (= (ite MW_S1_V4 S1_V4_!2451 V4_0) ?x2241)))))
 (let (($x3855 (not $x621)))
 (let (($x608 (= S2_V3_!2454 S2_V3_!2470)))
 (let (($x3281 (and (or (not R_S2_V1) (= E1_!2452 ?x6016)) (or $x2162 (= (ite MW_S1_V3 S1_V3_!2448 V3_0) ?x1873)) (or (not R_S2_V2) (= ?x2246 ?x5285)) (or $x150 (= (ite MW_S1_V5 S1_V5_!2450 V5_0) ?x1901)) (or $x5480 (= (ite MW_S1_V4 S1_V4_!2451 V4_0) ?x3616)))))
 (let (($x994 (not $x3281)))
 (let (($x363 (= S2_V3_!2454 S2_V3_!2459)))
 (let (($x1566 (or $x5480 (= (ite MW_S1_V4 S1_V4_!2451 V4_0) (ite MW_S2_V4 S2_V4_!2457 (ite MW_S1_V4 S1_V4_!2451 V4_0))))))
 (let (($x2415 (or $x150 (= (ite MW_S1_V5 S1_V5_!2450 V5_0) (ite MW_S2_V5 S2_V5_!2456 (ite MW_S1_V5 S1_V5_!2450 V5_0))))))
 (let (($x2707 (or $x2162 (= (ite MW_S1_V3 S1_V3_!2448 V3_0) (ite MW_S2_V3 S2_V3_!2454 (ite MW_S1_V3 S1_V3_!2448 V3_0))))))
 (let (($x4013 (and (or (not R_S2_V1) (= E1_!2452 ?x3792)) $x2707 (or (not R_S2_V2) (= ?x2246 (ite MW_S2_V2 S2_V2_!2455 ?x2246))) $x2415 $x1566)))
 (let (($x5014 (not $x4013)))
 (let (($x5980 (= S2_V2_!2481 S2_V2_!2455)))
 (let (($x4033 (and (or (not R_S2_V1) (= ?x4809 E1_!2452)) (or $x2162 (= ?x305 (ite MW_S1_V3 S1_V3_!2448 V3_0))) (or (not R_S2_V2) (= ?x4865 ?x2246)) (or $x150 (= ?x1808 (ite MW_S1_V5 S1_V5_!2450 V5_0))) (or $x5480 (= ?x2241 (ite MW_S1_V4 S1_V4_!2451 V4_0))))))
 (let (($x5984 (not $x4033)))
 (let (($x2296 (= S2_V2_!2471 S2_V2_!2481)))
 (let (($x2729 (and (or (not R_S2_V1) (= ?x6016 ?x4809)) (or $x2162 (= ?x1873 ?x305)) (or (not R_S2_V2) (= ?x5285 ?x4865)) (or $x150 (= ?x1901 ?x1808)) (or $x5480 (= ?x3616 ?x2241)))))
 (let (($x2210 (not $x2729)))
 (let (($x478 (= S2_V2_!2471 S2_V2_!2455)))
 (let (($x4004 (and (or (not R_S2_V1) (= ?x6016 E1_!2452)) (or $x2162 (= ?x1873 (ite MW_S1_V3 S1_V3_!2448 V3_0))) (or (not R_S2_V2) (= ?x5285 ?x2246)) (or $x150 (= ?x1901 (ite MW_S1_V5 S1_V5_!2450 V5_0))) (or $x5480 (= ?x3616 (ite MW_S1_V4 S1_V4_!2451 V4_0))))))
 (let (($x2069 (not $x4004)))
 (let (($x2681 (not R_S1_V4)))
 (let (($x2536 (or $x2681 (= ?x3990 V4_0))))
 (let (($x6050 (not R_S1_V5)))
 (let (($x505 (or $x6050 (= ?x194 V5_0))))
 (let (($x3163 (not R_S1_V2)))
 (let (($x491 (or $x3163 (= ?x1479 V2_0))))
 (let (($x5775 (not R_S1_V3)))
 (let (($x5250 (or $x5775 (= ?x3891 V3_0))))
 (let (($x351 (and (or (not R_S1_V1) (= ?x5089 (+ (- 1) E1_!2446))) $x5250 $x491 $x505 $x2536)))
 (let (($x90 (not $x351)))
 (let (($x1963 (= S1_V4_!2468 S1_V4_!2478)))
 (let (($x5539 (or $x2681 (= V4_0 ?x3990))))
 (let (($x2701 (or $x6050 (= V5_0 ?x194))))
 (let (($x5211 (or $x3163 (= V2_0 ?x1479))))
 (let (($x1120 (or $x5775 (= V3_0 ?x3891))))
 (let (($x5903 (not (and (or (not R_S1_V1) (= E1_!2463 ?x2835)) $x1120 $x5211 $x2701 $x5539))))
 (let (($x5784 (and (or (not R_S2_V1) (= ?x1039 (+ (- 1) ?x4809))) (or $x2162 (= (ite MW_S2_V3 S2_V3_!2454 (ite MW_S1_V3 S1_V3_!2448 V3_0)) ?x305)) (or (not R_S2_V2) (= (ite MW_S2_V2 S2_V2_!2455 ?x2246) ?x4865)) (or $x150 (= (ite MW_S2_V5 S2_V5_!2456 (ite MW_S1_V5 S1_V5_!2450 V5_0)) ?x1808)) (or $x5480 (= (ite MW_S2_V4 S2_V4_!2457 (ite MW_S1_V4 S1_V4_!2451 V4_0)) ?x2241)))))
 (let (($x1253 (not $x5784)))
 (let (($x1803 (and (or (not R_S1_V1) (= ?x5089 (+ (- 1) E1_!2463))) $x5250 $x491 $x505 $x2536)))
 (let (($x2970 (not $x1803)))
 (let (($x1749 (and (or (not R_S2_V1) (= ?x1039 (+ (- 1) ?x6016))) (or $x2162 (= (ite MW_S2_V3 S2_V3_!2454 (ite MW_S1_V3 S1_V3_!2448 V3_0)) ?x1873)) (or (not R_S2_V2) (= (ite MW_S2_V2 S2_V2_!2455 ?x2246) ?x5285)) (or $x150 (= (ite MW_S2_V5 S2_V5_!2456 (ite MW_S1_V5 S1_V5_!2450 V5_0)) ?x1901)) (or $x5480 (= (ite MW_S2_V4 S2_V4_!2457 (ite MW_S1_V4 S1_V4_!2451 V4_0)) ?x3616)))))
 (let (($x3289 (not $x1749)))
 (let (($x2511 (= E1_!2463 E1_!2446)))
 (let (($x2252 (and (or (not R_E1_V2) (= ?x2246 V2_0)) (or (not R_E1_V5) (= (ite MW_S1_V5 S1_V5_!2450 V5_0) V5_0)) (or (not R_E1_V4) (= (ite MW_S1_V4 S1_V4_!2451 V4_0) V4_0)))))
 (let (($x5245 (not $x2252)))
 (let (($x1381 (or $x5480 (= (ite MW_S2_V4 S2_V4_!2457 (ite MW_S1_V4 S1_V4_!2451 V4_0)) (ite MW_S1_V4 S1_V4_!2451 V4_0)))))
 (let (($x5336 (or $x150 (= (ite MW_S2_V5 S2_V5_!2456 (ite MW_S1_V5 S1_V5_!2450 V5_0)) (ite MW_S1_V5 S1_V5_!2450 V5_0)))))
 (let (($x2498 (or $x2162 (= (ite MW_S2_V3 S2_V3_!2454 (ite MW_S1_V3 S1_V3_!2448 V3_0)) (ite MW_S1_V3 S1_V3_!2448 V3_0)))))
 (let (($x4803 (and (or (not R_S2_V1) (= ?x1039 (+ (- 1) E1_!2452))) $x2498 (or (not R_S2_V2) (= (ite MW_S2_V2 S2_V2_!2455 ?x2246) ?x2246)) $x5336 $x1381)))
 (let (($x1487 (or (not (and (or (not R_S1_V1) (= E1_!2446 ?x2835)) $x1120 $x5211 $x2701 $x5539)) (= S1_V1_!2447 S1_V1_!2474))))
 (let (($x3312 (and $x1487 (or (not (or (not R_S1_V1) $x2511)) (= S1_V1_!2464 S1_V1_!2447)) (or $x5903 (= S1_V1_!2464 S1_V1_!2474)) (or $x994 (= S2_V5_!2456 S2_V5_!2472)) (or (not $x4803) (= S2_V5_!2461 S2_V5_!2456)) (or $x3289 (= S2_V5_!2461 S2_V5_!2472)) (or $x5984 (= S2_V5_!2482 S2_V5_!2456)) (or $x1679 (= S2_V5_!2482 S2_V5_!2461)) (or $x5208 (= S2_V5_!2482 S2_V5_!2472)) (or (not (or (not R_S1_V1) $x2511)) (= S1_V3_!2465 S1_V3_!2448)) (or $x5903 (= S1_V3_!2465 S1_V3_!2475)) (or $x90 (= S1_V3_!2475 S1_V3_!2448)) (or (not (or (not R_S1_V1) $x2511)) (= S1_V2_!2466 S1_V2_!2449)) (or $x90 (= S1_V2_!2476 S1_V2_!2449)) (or $x2970 (= S1_V2_!2476 S1_V2_!2466)) (or $x5245 (= E1_!2452 E1_!2446)) (or $x5245 (= E1_!2452 E1_!2463)) $x2511 (or $x5014 (= S2_V4_!2457 S2_V4_!2462)) (or $x994 (= S2_V4_!2457 S2_V4_!2473)) (or $x3855 (= S2_V4_!2457 S2_V4_!2483)) (or $x3289 (= S2_V4_!2462 S2_V4_!2473)) (or $x1253 (= S2_V4_!2462 S2_V4_!2483)) (or $x5208 (= S2_V4_!2483 S2_V4_!2473)) (or (not (or (not R_S1_V1) $x2511)) (= S1_V5_!2467 S1_V5_!2450)) (or $x90 (= S1_V5_!2477 S1_V5_!2450)) (or $x2970 (= S1_V5_!2477 S1_V5_!2467)) (or $x5014 (= S2_V1_!2453 S2_V1_!2458)) (or $x3855 (= S2_V1_!2453 S2_V1_!2479)) (or $x1253 (= S2_V1_!2458 S2_V1_!2479)) (or $x2069 (= S2_V1_!2469 S2_V1_!2453)) (or $x746 (= S2_V1_!2469 S2_V1_!2458)) (or $x2210 (= S2_V1_!2469 S2_V1_!2479)) (or (not (or (not R_S1_V1) $x2511)) (= S1_V4_!2468 S1_V4_!2451)) (or $x5903 $x1963) (or $x90 (= S1_V4_!2478 S1_V4_!2451)) (or $x5014 (= S2_V2_!2455 S2_V2_!2460)) (or $x2069 $x478) (or $x746 (= S2_V2_!2471 S2_V2_!2460)) (or $x2210 $x2296) (or $x5984 $x5980) (or $x1679 (= S2_V2_!2481 S2_V2_!2460)) (or $x5014 $x363) (or $x994 $x608) (or $x3855 $x963) (or $x746 $x5839) (or $x1679 $x1973) (or $x5208 $x5744) (not MW_S1_V1) (not MW_S1_V2) (or (not MW_S1_V5) W_S1_V5) (or (not MW_S1_V4) W_S1_V4) (or (not MW_S2_V1) W_S2_V1) (or (not MW_S2_V3) W_S2_V3) (or (not MW_S2_V2) W_S2_V2) (or (not MW_S2_V5) W_S2_V5))))
 (or (not $x3312) (not $x3292) (and (= ?x96 ?x2594) $x2027 (= ?x2017 ?x855) $x140 $x1060))))))))))))))))))))))))))))))))))))))))))))))))))))))))))))))))))))))))))))))))))))))))))))))
 )
 )
 )
 )
 )
 )
 )
 )
 )
 )
 )
 )
 )
 )
 )
 )
 )
 )
 )
 )
 )
 )
 )
 )
 )
 )
 )
 )
 )
 )
 )
 )
 )
 )
 )
 )
 )
 )
 )
 )
 )
 )
 )
 )
 )
 )
 )
 )
 )
 )
 )
 ))
 (let (($x2840 (not (or (and W_S2_V2 R_E1_V2) (and W_S2_V5 R_E1_V5) R_E1_V4))))
 (let (($x1177 (= DISJ_W_S2_R_E1 $x2840)))
 (let (($x3498 (and W_S2_V5 R_S2_V5)))
 (let (($x1442 (and W_S2_V2 R_S2_V2)))
 (let (($x2394 (and W_S2_V3 R_S2_V3)))
 (let (($x2161 (and W_S2_V1 R_S2_V1)))
 (let (($x6044 (= DISJ_W_S2_R_S2 (not (or $x2161 $x2394 $x1442 $x3498 R_S2_V4)))))
 (let (($x5291 (and W_S2_V5 R_S1_V5)))
 (let (($x2517 (and W_S2_V2 R_S1_V2)))
 (let (($x489 (and W_S2_V3 R_S1_V3)))
 (let (($x2146 (and W_S2_V1 R_S1_V1)))
 (let (($x1401 (= DISJ_W_S2_R_S1 (not (or $x2146 $x489 $x2517 $x5291 R_S1_V4)))))
 (let (($x2373 (= DISJ_W_S1_W_S2 (not (or W_S2_V3 (and W_S1_V5 W_S2_V5) W_S1_V4)))))
 (let (($x24 (not R_E1_V3)))
 (let (($x3919 (not (or R_S2_V3 (and W_S1_V5 R_S2_V5) (and W_S1_V4 R_S2_V4)))))
 (let (($x3269 (= DISJ_W_S1_R_S2 $x3919)))
 (let (($x2110 (not (or R_S1_V3 (and W_S1_V5 R_S1_V5) (and W_S1_V4 R_S1_V4)))))
 (let (($x3980 (= DISJ_W_S1_R_S1 $x2110)))
 (let (($x3955 (not R_S1_V1)))
 (let (($x1109 (and $x3955 DISJ_W_S1_R_S1)))
 (let (($x3337 (not W_S2_V2)))
 (let (($x1647 (not W_S2_V1)))
 (let (($x3824 (and $x1647 $x3337)))
 (let (($x3512 (and $x3337 DISJ_W_S2_R_S1 DISJ_W_S1_R_S1)))
 (let (($x401 (or $x3512 $x3824 $x1109)))
 (let (($x5185 (not W_S1_V2)))
 (let (($x4951 (not W_S1_V1)))
 (let (($x5776 (not R_E1_V1)))
 (let (($x3227 (and DISJ_W_S1_R_E1 $x5776 $x4951 $x5185 $x401 W_S1_V3 W_S2_V4 $x3980 $x3269 $x24 $x2373 $x1401 $x6044 $x1177 $x1951 $x2903 $x2265)))
 (and $x3227 $x5108 $x1832 $x2800 $x2711))))))))))))))))))))))))))))))))))))))
(check-sat)
